numOfMachines = 4;
numOfRobots = 2;
numOfJobs = 5;
maxOperations = 3;
operationsCount = [3,3,3,2,2];

operation = [
[<0,0,0>,<1,18,0>,<2,36,0>,<4,27,1>],
[<0,0,0>,<1,54,0>,<3,18,0>,<2,45,1>],
[<0,0,0>,<3,27,0>,<4,9,0>,<1,36,0>],
[<0,0,0>,<4,18,0>,<2,45,0>],
[<0,0,0>,<3,9,0>,<1,27,1>]
];